db/data/180198243059319454163113555223807285.z3.out
sat
-------------------
624.978964489
